22598.08 0
69 4 91 66 74 39 83 7 47 37 77 88 87 20 5 92 54 35 44 43 25 19 40 99 21 32 11 71 57 24 3 51 84 17 79 72 70 38 90 8 22 52 18 9 53 89 61 95 78 67 98 42 48 68 41 59 63 85 6 23 49 82 94 30 46 45 36 1 60 33 97 15 93 12 0 65 86 10 75 58 27 31 56 81 73 2 50 34 76 64 28 62 14 26 29 55 96 80 16 13